
Gurobi 11.0.3 (linux64) logging started Mon Aug 25 16:18:25 2025

Set parameter LogFile to value "/home/yihong/Coding/OR_SUC/SUC_epstheta_results_bigM100000_thread4/case24_ieee_rts_theta0.001_epsilon0.2_gurobi_seed10000_num_gen100_N_WDR50_load_scaling_factor1_proposed_eps_T4quadra_cost_bc1.03.txt"
Set parameter TimeLimit to value 3600
Gurobi Optimizer version 11.0.3 build v11.0.3rc0 (linux64 - "Ubuntu 20.04.6 LTS")

CPU model: AMD EPYC 7532 32-Core Processor, instruction set [SSE2|AVX|AVX2]
Thread count: 64 physical cores, 128 logical processors, using up to 4 threads

Academic license 2399124 - for non-commercial use only - registered to yi___@ed.ac.uk
Optimize a model with 10688 rows, 5011 columns and 386358 nonzeros
Model fingerprint: 0x07d41d32
Model has 400 quadratic constraints
Variable types: 4611 continuous, 400 integer (400 binary)
Coefficient statistics:
  Matrix range     [3e-04, 2e+03]
  QMatrix range    [2e-03, 8e-03]
  QLMatrix range   [3e-01, 6e+01]
  Objective range  [1e+00, 1e+00]
  Bounds range     [1e+00, 1e+00]
  RHS range        [5e-02, 9e+03]
Presolve removed 8966 rows and 2243 columns
Presolve time: 0.09s
Presolved: 1722 rows, 2768 columns, 11634 nonzeros
Presolved model has 400 quadratic constraint(s)
Variable types: 2368 continuous, 400 integer (400 binary)

Root relaxation: objective 3.881703e+03, 1163 iterations, 0.02 seconds (0.02 work units)

    Nodes    |    Current Node    |     Objective Bounds      |     Work
 Expl Unexpl |  Obj  Depth IntInf | Incumbent    BestBd   Gap | It/Node Time

     0     0 3881.70329    0    8          - 3881.70329      -     -    0s
     0     0 71474.1222    0  108          - 71474.1222      -     -    0s
     0     0 71478.9730    0  108          - 71478.9730      -     -    0s
     0     0 125086.764    0   60          - 125086.764      -     -    0s
     0     0 125088.053    0   60          - 125088.053      -     -    0s
     0     0 125110.852    0   32          - 125110.852      -     -    0s
     0     0 125111.051    0   32          - 125111.051      -     -    0s
     0     0 125111.116    0   32          - 125111.116      -     -    0s
     0     2 125111.116    0   32          - 125111.116      -     -    1s
H   37    56                    125117.74796 125112.782  0.00%  10.2    1s
*   37    56              14    125117.74796 125112.782  0.00%  10.2    1s

Cutting planes:
  Gomory: 22
  Implied bound: 68
  MIR: 24
  Flow cover: 117

Explored 79 nodes (3540 simplex iterations) in 1.79 seconds (1.42 work units)
Thread count was 4 (of 128 available processors)

Solution count 2: 125118 125118 

Optimal solution found (tolerance 1.00e-03)
Warning: max constraint violation (8.0931e-08) exceeds tolerance
Best objective 1.251177479621e+05, best bound 1.251127820921e+05, gap 0.0040%

Gurobi 11.0.3 (linux64) logging started Mon Aug 25 16:18:27 2025

Set parameter LogFile to value "/home/yihong/Coding/OR_SUC/SUC_epstheta_results_bigM100000_thread4/case24_ieee_rts_theta0.001_epsilon0.2_gurobi_seed10000_num_gen100_N_WDR50_load_scaling_factor1_proposed_eps_T4quadra_cost_bc1.03.txt"
Set parameter TimeLimit to value 3600
Gurobi Optimizer version 11.0.3 build v11.0.3rc0 (linux64 - "Ubuntu 20.04.6 LTS")

CPU model: AMD EPYC 7532 32-Core Processor, instruction set [SSE2|AVX|AVX2]
Thread count: 64 physical cores, 128 logical processors, using up to 4 threads

Academic license 2399124 - for non-commercial use only - registered to yi___@ed.ac.uk
Optimize a model with 10688 rows, 5012 columns and 387547 nonzeros
Model fingerprint: 0xabdcd948
Model has 401 quadratic constraints
Variable types: 4612 continuous, 400 integer (400 binary)
Coefficient statistics:
  Matrix range     [3e-04, 2e+03]
  QMatrix range    [2e-03, 5e+01]
  QLMatrix range   [3e-01, 6e+01]
  Objective range  [1e+00, 1e+00]
  Bounds range     [2e-01, 1e+00]
  RHS range        [1e+00, 1e+05]
  QRHS range       [5e-02, 5e-02]
Presolve removed 8374 rows and 1947 columns
Presolve time: 0.09s
Presolved: 2716 rows, 3465 columns, 16597 nonzeros
Presolved model has 400 quadratic constraint(s)
Presolved model has 1 bilinear constraint(s)

Solving non-convex MIQCP

Variable types: 3061 continuous, 404 integer (404 binary)

Root relaxation: objective 1.446444e-05, 2641 iterations, 0.06 seconds (0.09 work units)

    Nodes    |    Current Node    |     Objective Bounds      |     Work
 Expl Unexpl |  Obj  Depth IntInf | Incumbent    BestBd   Gap | It/Node Time

     0     0    0.00001    0    3          -    0.00001      -     -    0s
     0     0    0.00001    0    5          -    0.00001      -     -    0s
     0     0    0.00001    0    5          -    0.00001      -     -    0s
     0     0    0.00001    0    5          -    0.00001      -     -    0s
H    0     0                       0.0003841    0.00001  96.2%     -    0s
H    0     0                       0.0003794    0.00001  96.2%     -    0s
H    0     0                       0.0003646    0.00001  96.0%     -    0s
H    0     0                       0.0002603    0.00001  94.4%     -    0s
     0     2    0.00019    0    5    0.00026    0.00019  27.0%     -    0s
H   37    35                       0.0002087    0.00019  7.67%  46.8    1s
*   37    35               8       0.0002087    0.00019  7.67%  46.8    1s
H   45    38                       0.0002076    0.00019  7.20%  40.1    1s
*   45    38              10       0.0002076    0.00019  7.20%  40.1    1s
H   55    30                       0.0002071    0.00019  6.96%  33.7    1s
*   55    30              11       0.0002071    0.00019  6.96%  33.7    1s
H  104     1                       0.0002068    0.00021  0.06%  20.9    1s
*  104     1              12       0.0002068    0.00021  0.06%  20.9    1s

Cutting planes:
  Implied bound: 12
  MIR: 4
  Flow cover: 9
  RLT: 2
  PSD: 2

Explored 105 nodes (5251 simplex iterations) in 1.67 seconds (1.79 work units)
Thread count was 4 (of 128 available processors)

Solution count 8: 0.000206818 0.000207082 0.000207609 ... 0.000384101

Optimal solution found (tolerance 1.00e-03)
Best objective 2.068184611179e-04, best bound 2.066891944013e-04, gap 0.0625%
